Welcome to the CBC MILP Solver 
Version: 2.10.7 
Build Date: Feb 14 2022 

command line - cbc inputs/new_tr/order/triang9_0_default_input.lp sec 1800 solve solu solutions/new_tr/triang9_0_default_input.lp (default strategy 1)
seconds was changed from 1e+100 to 1800
Continuous objective value is 379.075 - 1.82 seconds
Cgl0002I 1201 variables fixed
Cgl0003I 0 fixed, 1 tightened bounds, 1046 strengthened rows, 0 substitutions
Cgl0003I 0 fixed, 0 tightened bounds, 193 strengthened rows, 0 substitutions
Cgl0003I 0 fixed, 0 tightened bounds, 18 strengthened rows, 0 substitutions
Cgl0003I 0 fixed, 0 tightened bounds, 3 strengthened rows, 0 substitutions
Cgl0004I processed model has 4309 rows, 1490 columns (1490 integer (1445 of which binary)) and 14098 elements
Cutoff increment increased from 1e-05 to 0.9999
Cbc0045I 1 integer variables out of 1490 objects (1490 integer) have cost of 1 - high priority
Cbc0045I branch on satisfied Y create fake objective Y random cost Y
Cbc0038I Initial state - 810 integers unsatisfied sum - 149.556
Cbc0038I Pass   1: (2.95 seconds) suminf.   70.37504 (490) obj. 432.959 iterations 1777
Cbc0038I Pass   2: (3.05 seconds) suminf.   65.95988 (470) obj. 445.488 iterations 413
Cbc0038I Pass   3: (3.06 seconds) suminf.   63.05456 (463) obj. 446.475 iterations 33
Cbc0038I Pass   4: (3.07 seconds) suminf.   63.05456 (463) obj. 446.475 iterations 1
Cbc0038I Pass   5: (3.14 seconds) suminf.   53.69387 (450) obj. 444.188 iterations 300
Cbc0038I Pass   6: (3.18 seconds) suminf.   50.32071 (445) obj. 444.494 iterations 141
Cbc0038I Pass   7: (3.19 seconds) suminf.   50.32071 (445) obj. 444.494 iterations 2
Cbc0038I Pass   8: (3.26 seconds) suminf.   47.44801 (407) obj. 458.031 iterations 306
Cbc0038I Pass   9: (3.33 seconds) suminf.   43.51874 (409) obj. 459.062 iterations 296
Cbc0038I Pass  10: (3.33 seconds) suminf.   43.51874 (409) obj. 459.062 iterations 1
Cbc0038I Pass  11: (3.41 seconds) suminf.   41.09665 (387) obj. 451.9 iterations 348
Cbc0038I Pass  12: (3.45 seconds) suminf.   39.82653 (401) obj. 452.561 iterations 140
Cbc0038I Pass  13: (3.52 seconds) suminf.   40.26777 (401) obj. 455.208 iterations 279
Cbc0038I Pass  14: (3.55 seconds) suminf.   41.04932 (392) obj. 452.443 iterations 119
Cbc0038I Pass  15: (3.57 seconds) suminf.   39.51911 (386) obj. 451.38 iterations 82
Cbc0038I Pass  16: (3.61 seconds) suminf.   39.26306 (365) obj. 452.212 iterations 165
Cbc0038I Pass  17: (3.64 seconds) suminf.   37.17326 (375) obj. 455.952 iterations 80
Cbc0038I Pass  18: (3.64 seconds) suminf.   37.45713 (375) obj. 455.953 iterations 5
Cbc0038I Pass  19: (3.69 seconds) suminf.   36.71266 (344) obj. 456.434 iterations 222
Cbc0038I Pass  20: (3.73 seconds) suminf.   34.43418 (331) obj. 453.948 iterations 161
Cbc0038I Pass  21: (3.74 seconds) suminf.   34.43418 (331) obj. 453.948 iterations 8
Cbc0038I Pass  22: (3.77 seconds) suminf.   36.76721 (338) obj. 454.406 iterations 110
Cbc0038I Pass  23: (3.78 seconds) suminf.   36.19519 (336) obj. 450.774 iterations 29
Cbc0038I Pass  24: (3.80 seconds) suminf.   34.02143 (337) obj. 448.819 iterations 70
Cbc0038I Pass  25: (3.84 seconds) suminf.   32.27190 (323) obj. 451.816 iterations 170
Cbc0038I Pass  26: (3.87 seconds) suminf.   31.27404 (320) obj. 459.039 iterations 121
Cbc0038I Pass  27: (3.89 seconds) suminf.   30.95458 (323) obj. 458.961 iterations 61
Cbc0038I Pass  28: (3.92 seconds) suminf.   32.01382 (288) obj. 458.837 iterations 130
Cbc0038I Pass  29: (3.94 seconds) suminf.   31.35552 (293) obj. 458.876 iterations 71
Cbc0038I Pass  30: (3.95 seconds) suminf.   31.33010 (293) obj. 458.864 iterations 12
Cbc0038I Pass  31: (3.97 seconds) suminf.   32.06175 (282) obj. 458.779 iterations 100
Cbc0038I Pass  32: (3.99 seconds) suminf.   30.50910 (280) obj. 458.904 iterations 57
Cbc0038I Pass  33: (4.01 seconds) suminf.   29.27366 (271) obj. 458.766 iterations 111
Cbc0038I Pass  34: (4.02 seconds) suminf.   29.43046 (280) obj. 458.916 iterations 40
Cbc0038I Pass  35: (4.04 seconds) suminf.   28.88403 (281) obj. 458.923 iterations 35
Cbc0038I Pass  36: (4.07 seconds) suminf.   27.57212 (270) obj. 458.823 iterations 131
Cbc0038I Pass  37: (4.07 seconds) suminf.   27.14208 (272) obj. 458.874 iterations 13
Cbc0038I Pass  38: (4.09 seconds) suminf.   26.59271 (271) obj. 458.879 iterations 42
Cbc0038I Pass  39: (4.13 seconds) suminf.   28.24667 (254) obj. 457.779 iterations 204
Cbc0038I Pass  40: (4.14 seconds) suminf.   27.64566 (245) obj. 457.61 iterations 50
Cbc0038I Pass  41: (4.16 seconds) suminf.   25.99300 (245) obj. 457.648 iterations 76
Cbc0038I Pass  42: (4.18 seconds) suminf.   24.76710 (250) obj. 457.926 iterations 64
Cbc0038I Pass  43: (4.21 seconds) suminf.   25.19269 (233) obj. 457.704 iterations 182
Cbc0038I Pass  44: (4.23 seconds) suminf.   25.41522 (247) obj. 457.855 iterations 79
Cbc0038I Pass  45: (4.29 seconds) suminf.   23.16450 (217) obj. 482.325 iterations 292
Cbc0038I Pass  46: (4.30 seconds) suminf.   22.55531 (210) obj. 482.167 iterations 68
Cbc0038I Pass  47: (4.31 seconds) suminf.   22.31592 (208) obj. 482.104 iterations 44
Cbc0038I Pass  48: (4.33 seconds) suminf.   21.78892 (218) obj. 482.171 iterations 88
Cbc0038I Pass  49: (4.35 seconds) suminf.   21.06823 (198) obj. 480.765 iterations 68
Cbc0038I Pass  50: (4.44 seconds) suminf.   18.10420 (176) obj. 504.151 iterations 542
Cbc0038I Pass  51: (4.45 seconds) suminf.   17.31324 (176) obj. 504.509 iterations 52
Cbc0038I Pass  52: (4.48 seconds) suminf.   14.25636 (131) obj. 495.235 iterations 171
Cbc0038I Pass  53: (4.49 seconds) suminf.   13.41219 (129) obj. 495.206 iterations 24
Cbc0038I Pass  54: (4.57 seconds) suminf.    9.25785 (102) obj. 505.464 iterations 507
Cbc0038I Pass  55: (4.58 seconds) suminf.    8.01298 (93) obj. 505.46 iterations 70
Cbc0038I Pass  56: (4.59 seconds) suminf.    8.02063 (101) obj. 505.46 iterations 31
Cbc0038I Pass  57: (4.61 seconds) suminf.    4.40470 (67) obj. 464 iterations 114
Cbc0038I Pass  58: (4.61 seconds) suminf.    4.40470 (67) obj. 464 iterations 14
Cbc0038I Pass  59: (4.63 seconds) suminf.    0.63401 (39) obj. 464 iterations 92
Cbc0038I Pass  60: (4.64 seconds) suminf.    0.63401 (39) obj. 464 iterations 3
Cbc0038I Pass  61: (4.65 seconds) suminf.    0.22723 (15) obj. 464 iterations 46
Cbc0038I Pass  62: (4.65 seconds) suminf.    0.22723 (15) obj. 464 iterations 0
Cbc0038I Pass  63: (4.76 seconds) suminf.    0.57772 (17) obj. 464 iterations 622
Cbc0038I Pass  64: (4.78 seconds) suminf.    1.35694 (17) obj. 464 iterations 164
Cbc0038I Pass  65: (4.79 seconds) suminf.    1.35694 (17) obj. 464 iterations 18
Cbc0038I Pass  66: (4.80 seconds) suminf.    0.00000 (0) obj. 464 iterations 79
Cbc0038I Solution found of 464
Cbc0038I Cleaned solution of 464
Cbc0038I Before mini branch and bound, 500 integers at bound fixed and 0 continuous
Cbc0038I Mini branch and bound did not improve solution (4.83 seconds)
Cbc0038I Round again with cutoff of 454.608
Cbc0038I Pass  67: (4.83 seconds) suminf.   70.37504 (490) obj. 432.959 iterations 0
Cbc0038I Pass  68: (4.92 seconds) suminf.   65.95988 (470) obj. 445.488 iterations 436
Cbc0038I Pass  69: (4.93 seconds) suminf.   63.05456 (463) obj. 446.475 iterations 44
Cbc0038I Pass  70: (4.94 seconds) suminf.   63.05456 (463) obj. 446.475 iterations 2
Cbc0038I Pass  71: (5.02 seconds) suminf.   55.52685 (458) obj. 444.276 iterations 372
Cbc0038I Pass  72: (5.08 seconds) suminf.   50.43884 (440) obj. 444.557 iterations 219
Cbc0038I Pass  73: (5.08 seconds) suminf.   50.34992 (441) obj. 444.551 iterations 5
Cbc0038I Pass  74: (5.14 seconds) suminf.   47.05283 (410) obj. 443.257 iterations 207
Cbc0038I Pass  75: (5.15 seconds) suminf.   48.00508 (409) obj. 443.516 iterations 41
Cbc0038I Pass  76: (5.16 seconds) suminf.   46.86492 (408) obj. 443.648 iterations 40
Cbc0038I Pass  77: (5.18 seconds) suminf.   46.42966 (408) obj. 443.634 iterations 68
Cbc0038I Pass  78: (5.25 seconds) suminf.   44.60630 (386) obj. 454.608 iterations 315
Cbc0038I Pass  79: (5.29 seconds) suminf.   41.75006 (391) obj. 454.608 iterations 148
Cbc0038I Pass  80: (5.31 seconds) suminf.   41.03220 (392) obj. 454.608 iterations 64
Cbc0038I Pass  81: (5.37 seconds) suminf.   39.52376 (359) obj. 454.608 iterations 285
Cbc0038I Pass  82: (5.41 seconds) suminf.   38.83652 (360) obj. 454.608 iterations 154
Cbc0038I Pass  83: (5.47 seconds) suminf.   40.86213 (353) obj. 454.608 iterations 272
Cbc0038I Pass  84: (5.49 seconds) suminf.   40.57549 (349) obj. 454.608 iterations 70
Cbc0038I Pass  85: (5.53 seconds) suminf.   37.81343 (328) obj. 454.608 iterations 220
Cbc0038I Pass  86: (5.56 seconds) suminf.   34.93000 (325) obj. 454.608 iterations 134
Cbc0038I Pass  87: (5.57 seconds) suminf.   34.66520 (330) obj. 454.608 iterations 35
Cbc0038I Pass  88: (5.58 seconds) suminf.   35.03759 (330) obj. 454.608 iterations 11
Cbc0038I Pass  89: (5.64 seconds) suminf.   31.90830 (268) obj. 454.608 iterations 349
Cbc0038I Pass  90: (5.65 seconds) suminf.   31.83498 (276) obj. 454.608 iterations 30
Cbc0038I Pass  91: (5.68 seconds) suminf.   32.12926 (261) obj. 454.608 iterations 126
Cbc0038I Pass  92: (5.70 seconds) suminf.   28.37415 (265) obj. 454.608 iterations 93
Cbc0038I Pass  93: (5.72 seconds) suminf.   25.89625 (238) obj. 454.608 iterations 116
Cbc0038I Pass  94: (5.74 seconds) suminf.   27.56397 (250) obj. 454.608 iterations 86
Cbc0038I Pass  95: (5.76 seconds) suminf.   26.44429 (243) obj. 454.608 iterations 110
Cbc0038I Pass  96: (5.79 seconds) suminf.   27.24754 (251) obj. 454.608 iterations 115
Cbc0038I Pass  97: (5.83 seconds) suminf.   29.00332 (223) obj. 454.608 iterations 243
Cbc0038I Pass  98: (5.85 seconds) suminf.   27.78438 (222) obj. 454.608 iterations 65
Cbc0038I Pass  99: (5.86 seconds) suminf.   25.44787 (223) obj. 454.608 iterations 55
Cbc0038I Pass 100: (5.88 seconds) suminf.   24.40063 (226) obj. 454.608 iterations 76
Cbc0038I Pass 101: (5.92 seconds) suminf.   26.04195 (215) obj. 454.608 iterations 215
Cbc0038I Pass 102: (5.93 seconds) suminf.   23.87915 (217) obj. 454.608 iterations 82
Cbc0038I Pass 103: (5.98 seconds) suminf.   24.81724 (183) obj. 454.608 iterations 259
Cbc0038I Pass 104: (6.00 seconds) suminf.   23.67452 (201) obj. 454.608 iterations 89
Cbc0038I Pass 105: (6.01 seconds) suminf.   23.40379 (201) obj. 454.608 iterations 10
Cbc0038I Pass 106: (6.03 seconds) suminf.   22.06783 (187) obj. 454.608 iterations 140
Cbc0038I Pass 107: (6.06 seconds) suminf.   21.64571 (179) obj. 454.608 iterations 134
Cbc0038I Pass 108: (6.08 seconds) suminf.   21.51019 (188) obj. 454.608 iterations 85
Cbc0038I Pass 109: (6.09 seconds) suminf.   19.68263 (188) obj. 454.608 iterations 32
Cbc0038I Pass 110: (6.10 seconds) suminf.   20.78231 (169) obj. 454.608 iterations 69
Cbc0038I Pass 111: (6.11 seconds) suminf.   20.29285 (181) obj. 454.608 iterations 45
Cbc0038I Pass 112: (6.17 seconds) suminf.   16.71041 (176) obj. 454.608 iterations 309
Cbc0038I Pass 113: (6.18 seconds) suminf.   14.95028 (171) obj. 454.608 iterations 48
Cbc0038I Pass 114: (6.19 seconds) suminf.   13.49427 (156) obj. 454.608 iterations 76
Cbc0038I Pass 115: (6.20 seconds) suminf.   12.50186 (159) obj. 454.608 iterations 57
Cbc0038I Pass 116: (6.25 seconds) suminf.    5.98659 (127) obj. 454.608 iterations 321
Cbc0038I Pass 117: (6.26 seconds) suminf.    5.97808 (126) obj. 454.608 iterations 26
Cbc0038I Pass 118: (6.27 seconds) suminf.    3.20241 (108) obj. 454.608 iterations 89
Cbc0038I Pass 119: (6.28 seconds) suminf.    3.17362 (105) obj. 454.608 iterations 27
Cbc0038I Pass 120: (6.29 seconds) suminf.    2.17205 (66) obj. 454.608 iterations 48
Cbc0038I Pass 121: (6.30 seconds) suminf.    2.17205 (66) obj. 454.608 iterations 21
Cbc0038I Pass 122: (6.31 seconds) suminf.    0.63675 (29) obj. 454.608 iterations 71
Cbc0038I Pass 123: (6.31 seconds) suminf.    0.63675 (29) obj. 454.608 iterations 2
Cbc0038I Pass 124: (6.33 seconds) suminf.    0.90160 (19) obj. 454.608 iterations 100
Cbc0038I Pass 125: (6.33 seconds) suminf.    0.90160 (19) obj. 454.608 iterations 10
Cbc0038I Pass 126: (6.34 seconds) suminf.    0.39241 (1) obj. 454.608 iterations 23
Cbc0038I Solution found of 454.608
Cbc0038I Branch and bound needed to clear up 1 general integers
Cbc0038I Full problem 4310 rows 1490 columns, reduced to 0 rows 0 columns
Cbc0038I Cleaned solution of 444
Cbc0038I Before mini branch and bound, 498 integers at bound fixed and 0 continuous
Cbc0038I Full problem 4309 rows 1490 columns, reduced to 3203 rows 989 columns - 378 fixed gives 1051, 229 - ok now
Cbc0038I Full problem 4309 rows 1490 columns, reduced to 141 rows 55 columns
Cbc0038I Mini branch and bound did not improve solution (6.91 seconds)
Cbc0038I Round again with cutoff of 430.215
Cbc0038I Reduced cost fixing fixed 3 variables on major pass 3
Cbc0038I Pass 127: (6.92 seconds) suminf.   70.63467 (490) obj. 430 iterations 15
Cbc0038I Pass 128: (6.99 seconds) suminf.   66.64469 (476) obj. 430.215 iterations 375
Cbc0038I Pass 129: (7.00 seconds) suminf.   63.64865 (469) obj. 430.215 iterations 25
Cbc0038I Pass 130: (7.02 seconds) suminf.   63.85754 (481) obj. 430.215 iterations 71
Cbc0038I Pass 131: (7.08 seconds) suminf.   62.92259 (481) obj. 430.215 iterations 212
Cbc0038I Pass 132: (7.16 seconds) suminf.   54.71857 (451) obj. 430.215 iterations 386
Cbc0038I Pass 133: (7.21 seconds) suminf.   50.23453 (442) obj. 430.215 iterations 159
Cbc0038I Pass 134: (7.22 seconds) suminf.   50.25136 (442) obj. 430.215 iterations 4
Cbc0038I Pass 135: (7.26 seconds) suminf.   51.94469 (436) obj. 430.215 iterations 154
Cbc0038I Pass 136: (7.28 seconds) suminf.   51.29574 (431) obj. 430.215 iterations 70
Cbc0038I Pass 137: (7.35 seconds) suminf.   46.73044 (427) obj. 430.215 iterations 305
Cbc0038I Pass 138: (7.38 seconds) suminf.   46.86004 (428) obj. 430.215 iterations 105
Cbc0038I Pass 139: (7.40 seconds) suminf.   46.84537 (427) obj. 430.215 iterations 78
Cbc0038I Pass 140: (7.47 seconds) suminf.   45.51325 (402) obj. 430.215 iterations 297
Cbc0038I Pass 141: (7.48 seconds) suminf.   45.31791 (415) obj. 430.215 iterations 49
Cbc0038I Pass 142: (7.56 seconds) suminf.   46.34184 (382) obj. 430.215 iterations 380
Cbc0038I Pass 143: (7.59 seconds) suminf.   45.13267 (395) obj. 430.215 iterations 97
Cbc0038I Pass 144: (7.60 seconds) suminf.   45.18329 (393) obj. 430.215 iterations 41
Cbc0038I Pass 145: (7.62 seconds) suminf.   44.09428 (384) obj. 430.215 iterations 82
Cbc0038I Pass 146: (7.66 seconds) suminf.   41.57123 (377) obj. 430.215 iterations 138
Cbc0038I Pass 147: (7.73 seconds) suminf.   40.38885 (340) obj. 430.215 iterations 418
Cbc0038I Pass 148: (7.75 seconds) suminf.   38.14228 (343) obj. 430.215 iterations 68
Cbc0038I Pass 149: (7.79 seconds) suminf.   33.35504 (329) obj. 430.215 iterations 155
Cbc0038I Pass 150: (7.81 seconds) suminf.   32.36730 (333) obj. 430.215 iterations 100
Cbc0038I Pass 151: (7.83 seconds) suminf.   32.72174 (330) obj. 430.215 iterations 73
Cbc0038I Pass 152: (7.92 seconds) suminf.   32.65085 (309) obj. 430.215 iterations 512
Cbc0038I Pass 153: (7.95 seconds) suminf.   32.06910 (300) obj. 430.215 iterations 167
Cbc0038I Pass 154: (7.96 seconds) suminf.   32.03729 (299) obj. 430.215 iterations 1
Cbc0038I Pass 155: (8.03 seconds) suminf.   30.41164 (270) obj. 430.215 iterations 370
Cbc0038I Pass 156: (8.04 seconds) suminf.   30.98195 (288) obj. 430.215 iterations 66
Cbc0038I Pass 157: (8.09 seconds) suminf.   28.76128 (274) obj. 430.215 iterations 206
Cbc0038I Pass 158: (8.13 seconds) suminf.   26.84870 (259) obj. 430.215 iterations 188
Cbc0038I Pass 159: (8.14 seconds) suminf.   26.61915 (259) obj. 430.215 iterations 30
Cbc0038I Pass 160: (8.17 seconds) suminf.   27.89195 (261) obj. 430.215 iterations 174
Cbc0038I Pass 161: (8.20 seconds) suminf.   26.34272 (306) obj. 430.215 iterations 111
Cbc0038I Pass 162: (8.28 seconds) suminf.   22.44124 (218) obj. 430.215 iterations 489
Cbc0038I Pass 163: (8.32 seconds) suminf.   20.95857 (215) obj. 430.215 iterations 174
Cbc0038I Pass 164: (8.33 seconds) suminf.   21.34136 (211) obj. 430.215 iterations 42
Cbc0038I Pass 165: (8.35 seconds) suminf.   20.62815 (199) obj. 430.215 iterations 107
Cbc0038I Pass 166: (8.36 seconds) suminf.   20.14329 (211) obj. 430.215 iterations 76
Cbc0038I Pass 167: (8.38 seconds) suminf.   21.85558 (198) obj. 430.215 iterations 87
Cbc0038I Pass 168: (8.40 seconds) suminf.   20.20689 (210) obj. 430.215 iterations 72
Cbc0038I Pass 169: (8.59 seconds) suminf.   76.62841 (422) obj. 430.215 iterations 1121
Cbc0038I Pass 170: (8.72 seconds) suminf.   41.71733 (316) obj. 430.215 iterations 676
Cbc0038I Pass 171: (8.74 seconds) suminf.   41.13910 (306) obj. 430.215 iterations 89
Cbc0038I Pass 172: (8.77 seconds) suminf.   40.08339 (318) obj. 430.215 iterations 129
Cbc0038I Pass 173: (8.79 seconds) suminf.   36.56833 (302) obj. 430.215 iterations 58
Cbc0038I Pass 174: (8.80 seconds) suminf.   35.01145 (299) obj. 430.215 iterations 53
Cbc0038I Pass 175: (8.84 seconds) suminf.   35.74551 (291) obj. 430.215 iterations 138
Cbc0038I Pass 176: (8.85 seconds) suminf.   34.95635 (292) obj. 430.215 iterations 69
Cbc0038I Pass 177: (8.88 seconds) suminf.   29.98123 (266) obj. 430.215 iterations 115
Cbc0038I Pass 178: (8.89 seconds) suminf.   29.95007 (263) obj. 430.215 iterations 25
Cbc0038I Pass 179: (8.93 seconds) suminf.   28.03995 (245) obj. 430.215 iterations 182
Cbc0038I Pass 180: (8.93 seconds) suminf.   28.10770 (250) obj. 430.215 iterations 19
Cbc0038I Pass 181: (8.97 seconds) suminf.   25.56599 (238) obj. 430.215 iterations 154
Cbc0038I Pass 182: (8.98 seconds) suminf.   26.29273 (244) obj. 430.215 iterations 29
Cbc0038I Pass 183: (9.02 seconds) suminf.   23.22530 (233) obj. 430.215 iterations 284
Cbc0038I Pass 184: (9.04 seconds) suminf.   22.10638 (233) obj. 430.215 iterations 108
Cbc0038I Pass 185: (9.09 seconds) suminf.   18.94789 (222) obj. 430.215 iterations 224
Cbc0038I Pass 186: (9.11 seconds) suminf.   17.47166 (214) obj. 430.215 iterations 123
Cbc0038I Pass 187: (9.12 seconds) suminf.   17.11401 (206) obj. 430.215 iterations 21
Cbc0038I Pass 188: (9.17 seconds) suminf.   18.79279 (200) obj. 430.215 iterations 273
Cbc0038I Pass 189: (9.19 seconds) suminf.   17.40726 (195) obj. 430.215 iterations 100
Cbc0038I Pass 190: (9.22 seconds) suminf.   20.17373 (188) obj. 430.215 iterations 203
Cbc0038I Pass 191: (9.25 seconds) suminf.   17.57467 (202) obj. 430.215 iterations 145
Cbc0038I Pass 192: (9.25 seconds) suminf.   17.32640 (198) obj. 430.215 iterations 6
Cbc0038I Pass 193: (9.27 seconds) suminf.   18.60177 (188) obj. 430.215 iterations 96
Cbc0038I Pass 194: (9.29 seconds) suminf.   17.87082 (220) obj. 430.215 iterations 93
Cbc0038I Pass 195: (9.30 seconds) suminf.   17.80576 (220) obj. 430.215 iterations 11
Cbc0038I Pass 196: (9.33 seconds) suminf.   16.10311 (177) obj. 430.215 iterations 175
Cbc0038I Pass 197: (9.35 seconds) suminf.   14.50603 (158) obj. 430.215 iterations 108
Cbc0038I Pass 198: (9.36 seconds) suminf.   13.69750 (157) obj. 430.215 iterations 23
Cbc0038I Pass 199: (9.39 seconds) suminf.   15.92013 (172) obj. 430.215 iterations 185
Cbc0038I Pass 200: (9.42 seconds) suminf.   13.28766 (169) obj. 430.215 iterations 171
Cbc0038I Pass 201: (9.43 seconds) suminf.   12.91099 (174) obj. 430.215 iterations 33
Cbc0038I Pass 202: (9.46 seconds) suminf.   14.04116 (188) obj. 430.215 iterations 193
Cbc0038I Pass 203: (9.49 seconds) suminf.   13.58402 (179) obj. 430.215 iterations 160
Cbc0038I Pass 204: (9.52 seconds) suminf.   16.42538 (168) obj. 430.215 iterations 195
Cbc0038I Pass 205: (9.54 seconds) suminf.   13.92690 (158) obj. 430.215 iterations 132
Cbc0038I Pass 206: (9.57 seconds) suminf.   14.23139 (152) obj. 430.215 iterations 180
Cbc0038I Pass 207: (9.59 seconds) suminf.   13.17526 (169) obj. 430.215 iterations 110
Cbc0038I Pass 208: (9.62 seconds) suminf.   14.06481 (163) obj. 430.215 iterations 180
Cbc0038I Pass 209: (9.64 seconds) suminf.   12.86022 (174) obj. 430.215 iterations 95
Cbc0038I Pass 210: (9.69 seconds) suminf.   16.87616 (168) obj. 430.215 iterations 280
Cbc0038I Pass 211: (9.71 seconds) suminf.   13.20111 (145) obj. 430.215 iterations 158
Cbc0038I Pass 212: (9.72 seconds) suminf.   13.00591 (147) obj. 430.215 iterations 39
Cbc0038I Pass 213: (9.75 seconds) suminf.   15.33257 (160) obj. 430.215 iterations 131
Cbc0038I Pass 214: (9.77 seconds) suminf.   12.61934 (173) obj. 430.215 iterations 155
Cbc0038I Pass 215: (9.80 seconds) suminf.   15.26952 (160) obj. 430.215 iterations 155
Cbc0038I Pass 216: (10.00 seconds) suminf.   67.62024 (439) obj. 430.215 iterations 1170
Cbc0038I Pass 217: (10.16 seconds) suminf.   34.61356 (285) obj. 430.215 iterations 908
Cbc0038I Pass 218: (10.19 seconds) suminf.   31.33130 (281) obj. 430.215 iterations 109
Cbc0038I Pass 219: (10.20 seconds) suminf.   31.40078 (274) obj. 430.215 iterations 27
Cbc0038I Pass 220: (10.25 seconds) suminf.   24.99124 (265) obj. 430.215 iterations 316
Cbc0038I Pass 221: (10.27 seconds) suminf.   22.99641 (251) obj. 430.215 iterations 41
Cbc0038I Pass 222: (10.30 seconds) suminf.   17.12053 (215) obj. 430.215 iterations 156
Cbc0038I Pass 223: (10.31 seconds) suminf.   16.78187 (215) obj. 430.215 iterations 19
Cbc0038I Pass 224: (10.33 seconds) suminf.   19.19580 (215) obj. 430.215 iterations 122
Cbc0038I Pass 225: (10.34 seconds) suminf.   17.63775 (208) obj. 430.215 iterations 64
Cbc0038I Pass 226: (10.46 seconds) suminf.   58.38328 (378) obj. 430.215 iterations 747
Cbc0038I No solution found this major pass
Cbc0038I Before mini branch and bound, 276 integers at bound fixed and 0 continuous
Cbc0038I Mini branch and bound did not improve solution (10.47 seconds)
Cbc0038I After 10.47 seconds - Feasibility pump exiting with objective of 444 - took 7.94 seconds
Cbc0012I Integer solution of 444 found by feasibility pump after 0 iterations and 0 nodes (10.47 seconds)
Cbc0038I Full problem 4309 rows 1490 columns, reduced to 2880 rows 833 columns - 347 fixed gives 785, 151 - ok now
Cbc0031I 32 added rows had average density of 8.90625
Cbc0013I At root node, 32 cuts changed objective from 379.075 to 380 in 10 passes
Cbc0014I Cut generator 0 (Probing) - 284 row cuts average 2.1 elements, 2 column cuts (2 active)  in 0.106 seconds - new frequency is 1
Cbc0014I Cut generator 1 (Gomory) - 86 row cuts average 702.2 elements, 0 column cuts (0 active)  in 0.677 seconds - new frequency is 1
Cbc0014I Cut generator 2 (Knapsack) - 44 row cuts average 5.7 elements, 0 column cuts (0 active)  in 0.021 seconds - new frequency is 1
Cbc0014I Cut generator 3 (Clique) - 0 row cuts average 0.0 elements, 0 column cuts (0 active)  in 0.020 seconds - new frequency is -100
Cbc0014I Cut generator 4 (MixedIntegerRounding2) - 1 row cuts average 2.0 elements, 0 column cuts (0 active)  in 0.019 seconds - new frequency is -100
Cbc0014I Cut generator 5 (FlowCover) - 0 row cuts average 0.0 elements, 0 column cuts (0 active)  in 0.015 seconds - new frequency is -100
Cbc0014I Cut generator 6 (TwoMirCuts) - 47 row cuts average 14.9 elements, 0 column cuts (0 active)  in 0.268 seconds - new frequency is -100
Cbc0010I After 0 nodes, 1 on tree, 444 best solution, best possible 380 (17.53 seconds)
Cbc0038I Full problem 4309 rows 1490 columns, reduced to 2813 rows 814 columns - 347 fixed gives 578, 109 - ok now
Cbc0038I Full problem 4309 rows 1490 columns, reduced to 1138 rows 319 columns
Cbc0010I After 100 nodes, 24 on tree, 444 best solution, best possible 380 (97.97 seconds)
Cbc0010I After 200 nodes, 22 on tree, 444 best solution, best possible 380 (119.80 seconds)
Cbc0038I Full problem 4309 rows 1490 columns, reduced to 913 rows 262 columns
Cbc0010I After 300 nodes, 29 on tree, 444 best solution, best possible 380 (144.07 seconds)
Cbc0010I After 400 nodes, 22 on tree, 444 best solution, best possible 380 (161.16 seconds)
Cbc0038I Full problem 4309 rows 1490 columns, reduced to 945 rows 265 columns
Cbc0010I After 500 nodes, 37 on tree, 444 best solution, best possible 380 (192.42 seconds)
Cbc0038I Full problem 4309 rows 1490 columns, reduced to 1040 rows 297 columns
Cbc0010I After 600 nodes, 31 on tree, 444 best solution, best possible 380 (204.83 seconds)
Cbc0038I Full problem 4309 rows 1490 columns, reduced to 1197 rows 343 columns
Cbc0010I After 700 nodes, 33 on tree, 444 best solution, best possible 380 (218.33 seconds)
Cbc0038I Full problem 4309 rows 1490 columns, reduced to 1025 rows 293 columns
Cbc0010I After 800 nodes, 38 on tree, 444 best solution, best possible 380 (232.33 seconds)
Cbc0010I After 900 nodes, 28 on tree, 444 best solution, best possible 380 (241.24 seconds)
Cbc0010I After 1000 nodes, 25 on tree, 444 best solution, best possible 380 (251.79 seconds)
Cbc0038I Full problem 4309 rows 1490 columns, reduced to 1008 rows 283 columns
Cbc0038I Full problem 4309 rows 1490 columns, reduced to 1074 rows 305 columns
Cbc0010I After 1100 nodes, 45 on tree, 444 best solution, best possible 380 (265.09 seconds)
Cbc0038I Full problem 4309 rows 1490 columns, reduced to 872 rows 245 columns
Cbc0010I After 1200 nodes, 25 on tree, 444 best solution, best possible 380 (284.40 seconds)
Cbc0010I After 1300 nodes, 31 on tree, 444 best solution, best possible 380 (307.95 seconds)
Cbc0010I After 1400 nodes, 21 on tree, 444 best solution, best possible 380 (340.70 seconds)
Cbc0010I After 1500 nodes, 25 on tree, 444 best solution, best possible 380 (376.88 seconds)
Cbc0010I After 1600 nodes, 17 on tree, 444 best solution, best possible 380 (444.61 seconds)
Cbc0010I After 1700 nodes, 50 on tree, 444 best solution, best possible 380 (491.06 seconds)
Cbc0010I After 1800 nodes, 42 on tree, 444 best solution, best possible 380 (502.91 seconds)
Cbc0010I After 1900 nodes, 40 on tree, 444 best solution, best possible 380 (520.44 seconds)
Cbc0010I After 2000 nodes, 51 on tree, 444 best solution, best possible 380 (532.76 seconds)
Cbc0010I After 2100 nodes, 52 on tree, 444 best solution, best possible 380 (543.56 seconds)
Cbc0010I After 2200 nodes, 43 on tree, 444 best solution, best possible 380 (555.47 seconds)
Cbc0010I After 2300 nodes, 42 on tree, 444 best solution, best possible 380 (574.62 seconds)
Cbc0038I Full problem 4309 rows 1490 columns, reduced to 1171 rows 332 columns
Cbc0010I After 2400 nodes, 41 on tree, 444 best solution, best possible 380 (585.10 seconds)
Cbc0010I After 2500 nodes, 44 on tree, 444 best solution, best possible 380 (600.17 seconds)
Cbc0010I After 2600 nodes, 35 on tree, 444 best solution, best possible 380 (611.02 seconds)
Cbc0010I After 2700 nodes, 38 on tree, 444 best solution, best possible 380 (629.36 seconds)
Cbc0010I After 2800 nodes, 23 on tree, 444 best solution, best possible 380 (657.27 seconds)
Cbc0010I After 2900 nodes, 37 on tree, 444 best solution, best possible 380 (684.06 seconds)
Cbc0010I After 3000 nodes, 26 on tree, 444 best solution, best possible 380 (697.77 seconds)
Cbc0010I After 3100 nodes, 32 on tree, 444 best solution, best possible 380 (753.52 seconds)
Cbc0010I After 3200 nodes, 31 on tree, 444 best solution, best possible 380 (778.72 seconds)
Cbc0010I After 3300 nodes, 50 on tree, 444 best solution, best possible 380 (837.61 seconds)
Cbc0010I After 3400 nodes, 45 on tree, 444 best solution, best possible 380 (845.12 seconds)
Cbc0010I After 3500 nodes, 41 on tree, 444 best solution, best possible 380 (856.49 seconds)
Cbc0010I After 3600 nodes, 33 on tree, 444 best solution, best possible 380 (870.76 seconds)
Cbc0038I Full problem 4309 rows 1490 columns, reduced to 2502 rows 692 columns - 257 fixed gives 793, 145 - ok now
Cbc0010I After 3700 nodes, 30 on tree, 444 best solution, best possible 380 (887.18 seconds)
Cbc0010I After 3800 nodes, 9 on tree, 444 best solution, best possible 380 (927.91 seconds)
Cbc0010I After 3900 nodes, 10 on tree, 444 best solution, best possible 380 (976.01 seconds)
Cbc0010I After 4000 nodes, 27 on tree, 444 best solution, best possible 380 (998.39 seconds)
Cbc0010I After 4100 nodes, 6 on tree, 444 best solution, best possible 380 (1019.78 seconds)
Cbc0038I Full problem 4309 rows 1490 columns, reduced to 2518 rows 704 columns - 263 fixed gives 788, 138 - ok now
Cbc0010I After 4200 nodes, 43 on tree, 444 best solution, best possible 380 (1072.49 seconds)
Cbc0010I After 4300 nodes, 36 on tree, 444 best solution, best possible 380 (1099.54 seconds)
Cbc0010I After 4400 nodes, 29 on tree, 444 best solution, best possible 380 (1126.39 seconds)
Cbc0010I After 4500 nodes, 25 on tree, 444 best solution, best possible 380 (1165.42 seconds)
Cbc0010I After 4600 nodes, 49 on tree, 444 best solution, best possible 380 (1187.37 seconds)
Cbc0010I After 4700 nodes, 51 on tree, 444 best solution, best possible 380 (1196.52 seconds)
Cbc0010I After 4800 nodes, 56 on tree, 444 best solution, best possible 380 (1205.63 seconds)
Cbc0010I After 4900 nodes, 52 on tree, 444 best solution, best possible 380 (1213.52 seconds)
Cbc0004I Integer solution of 380 found after 3301195 iterations and 4923 nodes (1215.86 seconds)
Cbc0001I Search completed - best objective 380, took 3301195 iterations and 4923 nodes (1215.86 seconds)
Cbc0032I Strong branching done 25192 times (1588063 iterations), fathomed 359 nodes and fixed 2056 variables
Cbc0035I Maximum depth 90, 2 variables fixed on reduced cost
Cuts at root node changed objective from 379.075 to 380
Probing was tried 982 times and created 202626 cuts of which 0 were active after adding rounds of cuts (5.702 seconds)
Gomory was tried 728 times and created 1368 cuts of which 0 were active after adding rounds of cuts (4.056 seconds)
Knapsack was tried 728 times and created 3662 cuts of which 0 were active after adding rounds of cuts (1.068 seconds)
Clique was tried 10 times and created 0 cuts of which 0 were active after adding rounds of cuts (0.020 seconds)
MixedIntegerRounding2 was tried 10 times and created 1 cuts of which 0 were active after adding rounds of cuts (0.019 seconds)
FlowCover was tried 10 times and created 0 cuts of which 0 were active after adding rounds of cuts (0.015 seconds)
TwoMirCuts was tried 10 times and created 47 cuts of which 0 were active after adding rounds of cuts (0.268 seconds)
ZeroHalf was tried 1 times and created 0 cuts of which 0 were active after adding rounds of cuts (0.055 seconds)
ImplicationCuts was tried 27 times and created 299 cuts of which 0 were active after adding rounds of cuts (0.007 seconds)

Result - Optimal solution found

Objective value:                380.00000000
Enumerated nodes:               4923
Total iterations:               3301195
Time (CPU seconds):             1216.10
Time (Wallclock seconds):       1217.45

Total time (CPU seconds):       1216.12   (Wallclock seconds):       1217.48

